
******************************************************************************
This program contains Ipopt, a library for large-scale nonlinear optimization.
 Ipopt is released as open source code under the Eclipse Public License (EPL).
         For more information visit http://projects.coin-or.org/Ipopt
******************************************************************************

This is Ipopt version 3.12.6, running with linear solver ma57.

Number of nonzeros in equality constraint Jacobian...:        0
Number of nonzeros in inequality constraint Jacobian.:    49980
Number of nonzeros in Lagrangian Hessian.............:    29997

Total number of variables............................:    10000
                     variables with only lower bounds:        0
                variables with lower and upper bounds:        0
                     variables with only upper bounds:        0
Total number of equality constraints.................:        0
Total number of inequality constraints...............:     9996
        inequality constraints with only lower bounds:     9996
   inequality constraints with lower and upper bounds:        0
        inequality constraints with only upper bounds:        0

iter    objective    inf_pr   inf_du lg(mu)  ||d||  lg(rg) alpha_du alpha_pr  ls
   0  5.0412720e+04 2.80e+01 6.55e+01  -1.0 0.00e+00    -  0.00e+00 0.00e+00   0
   1  1.9297127e+01 8.90e+00 1.85e+01  -1.0 5.68e-01    -  1.00e+00 1.00e+00f  1
   2  7.4081587e+03 2.98e+00 5.85e+00  -1.0 1.36e+00    -  2.82e-01 9.84e-01h  1
   3  1.2074252e+04 1.58e+00 3.80e+00  -1.0 1.48e+00    -  1.00e+00 6.74e-01h  1
   4  1.0043002e+04 1.09e+00 4.93e+00  -1.0 5.13e-01    -  1.00e+00 8.74e-01h  1
   5  1.0010710e+04 1.07e+00 2.56e+01  -1.0 1.22e+00   2.0 1.00e+00 5.51e-02h  1
   6  9.8482239e+03 1.04e+00 4.21e+01  -1.0 1.16e+00   1.5 1.00e+00 8.01e-02h  1
   7  8.1514583e+03 1.00e+00 1.44e+02  -1.0 5.69e+01   1.0 9.58e-03 6.68e-03h  1
   8  7.7962662e+01 9.29e-01 1.53e+04  -1.0 1.40e+01    -  4.11e-03 4.67e-02f  1
   9  4.0202494e+01 6.28e-01 1.24e+04  -1.0 1.25e+00    -  6.04e-03 1.94e-01f  1
iter    objective    inf_pr   inf_du lg(mu)  ||d||  lg(rg) alpha_du alpha_pr  ls
  10  1.6139289e+01 2.40e-01 1.70e+03  -1.0 1.50e+00    -  5.48e-02 1.00e+00f  1
  11  1.1967543e+01 0.00e+00 6.94e+02  -1.0 2.88e+00    -  5.16e-01 5.93e-01f  1
  12  9.8852923e+00 0.00e+00 2.71e+01  -1.0 1.76e+00    -  7.45e-01 1.00e+00f  1
  13  7.0241028e+00 7.14e-01 1.58e+01  -1.0 1.50e+01    -  1.00e-01 4.16e-01f  1
  14  6.7968928e+00 0.00e+00 1.19e+01  -1.0 6.18e+00    -  2.17e-01 9.42e-01f  1
  15  7.6968636e+00 0.00e+00 3.10e+00  -1.0 5.62e-01   0.6 9.93e-01 1.00e+00f  1
  16  4.4595043e+02 0.00e+00 9.26e-01  -1.0 6.81e-01   0.1 1.00e+00 1.00e+00f  1
  17  2.7953855e+02 0.00e+00 2.80e-01  -1.7 1.88e-01  -0.4 1.00e+00 1.00e+00f  1
  18  1.4225077e+02 0.00e+00 7.69e-02  -1.7 5.61e-01  -0.9 1.00e+00 1.00e+00f  1
  19  4.3432102e+01 0.00e+00 1.30e-01  -2.5 1.71e+00  -1.3 1.00e+00 1.00e+00f  1
iter    objective    inf_pr   inf_du lg(mu)  ||d||  lg(rg) alpha_du alpha_pr  ls
  20  3.8036464e+01 0.00e+00 6.24e-01  -2.5 2.88e+01    -  4.19e-01 1.59e-01f  1
  21  3.2962366e+01 0.00e+00 5.08e-01  -2.5 4.86e-01    -  1.00e+00 1.86e-01f  1
  22  1.3850794e+01 0.00e+00 1.24e-02  -2.5 7.11e-02    -  1.00e+00 1.00e+00f  1
  23  4.2875457e+00 0.00e+00 6.29e-03  -3.8 1.38e-01    -  1.00e+00 1.00e+00f  1
  24  1.7849996e+00 0.00e+00 2.77e-03  -3.8 2.81e-02    -  1.00e+00 1.00e+00f  1
  25  1.2162333e+00 0.00e+00 5.28e-04  -3.8 1.08e-02    -  1.00e+00 1.00e+00h  1
  26  6.8660400e-01 0.00e+00 1.57e-03  -5.7 1.63e-02    -  1.00e+00 1.00e+00f  1
  27  5.4246122e-01 0.00e+00 8.12e-04  -5.7 9.84e-03    -  1.00e+00 1.00e+00h  1
  28  5.0647792e-01 0.00e+00 3.02e-04  -5.7 5.11e-03    -  1.00e+00 1.00e+00h  1
  29  4.9819079e-01 0.00e+00 6.08e-05  -5.7 1.99e-03    -  1.00e+00 1.00e+00h  1
iter    objective    inf_pr   inf_du lg(mu)  ||d||  lg(rg) alpha_du alpha_pr  ls
  30  4.9697765e-01 0.00e+00 2.27e-06  -5.7 3.64e-04    -  1.00e+00 1.00e+00h  1
  31  4.9115706e-01 0.00e+00 1.33e-04  -8.6 2.39e-03    -  1.00e+00 1.00e+00h  1
  32  4.8954803e-01 0.00e+00 7.02e-05  -8.6 1.51e-03    -  1.00e+00 1.00e+00h  1
  33  4.8914293e-01 0.00e+00 3.18e-05  -8.6 8.42e-04    -  1.00e+00 1.00e+00h  1
  34  4.8904257e-01 0.00e+00 1.27e-05  -8.6 4.48e-04    -  1.00e+00 1.00e+00h  1
  35  4.8901826e-01 0.00e+00 3.70e-06  -8.6 2.03e-04    -  1.00e+00 1.00e+00h  1
  36  4.8901337e-01 0.00e+00 3.84e-07  -8.6 6.04e-05    -  1.00e+00 1.00e+00h  1
  37  4.8901297e-01 0.00e+00 3.46e-09  -8.6 5.54e-06    -  1.00e+00 1.00e+00h  1

Number of Iterations....: 37

                                   (scaled)                 (unscaled)
Objective...............:   4.8901296652762111e-01    4.8901296652762111e-01
Dual infeasibility......:   3.4568776283470460e-09    3.4568776283470460e-09
Constraint violation....:   0.0000000000000000e+00    0.0000000000000000e+00
Complementarity.........:   2.5065332754117608e-09    2.5065332754117608e-09
Overall NLP error.......:   3.4568776283470460e-09    3.4568776283470460e-09


Number of objective function evaluations             = 38
Number of objective gradient evaluations             = 38
Number of equality constraint evaluations            = 0
Number of inequality constraint evaluations          = 38
Number of equality constraint Jacobian evaluations   = 0
Number of inequality constraint Jacobian evaluations = 38
Number of Lagrangian Hessian evaluations             = 37
Total CPU secs in IPOPT (w/o function evaluations)   =      0.503
Total CPU secs in NLP function evaluations           =      0.467

EXIT: Optimal Solution Found.

************************ CUTEst statistics ************************


 Package used            :  IPOPT
 Problem                 :  LUKVLI5   
 # variables             =           10002
 # constraints           =            9996
 # objective functions   =        0.7700000E+02
 # objective gradients   =        0.3900000E+02
 # objective Hessians    =        0.3800000E+02
 # Hessian-vector prdct  =        0.0000000E+00
 # constraints functions =        0.7800000E+02
 # constraints gradients =        0.4000000E+02
 # constraints Hessians  =        0.3800000E+02
 Exit code               =               0
 Final f                 =   0.4890130E+00
 Set up time             =            0.31 seconds
 Solve time              =            0.97 seconds


******************************************************************

System Time =       0.9739999771 s.
